CPXPARAM_MIP_Cuts_Disjunctive#P15#1#3.675026#0.706563
CPXPARAM_MIP_Cuts_Disjunctive#P15#3#4.712559#0.906039
CPXPARAM_MIP_Cuts_FlowCovers#P16#0#4.711987#0.905929
CPXPARAM_MIP_Cuts_FlowCovers#P16#1#3.658249#0.703337
CPXPARAM_MIP_Cuts_FlowCovers#P16#2#5.201275#1.000000
